--- Command ---
python3 synplicate.py experiments/theorem_prover/ --solver=milp_solver_big_m

--- Return Code: 0 ---

--- Standard Output (stdout) ---
Executing PAC procedure for ((0.05, 0.03))...
Extracting synthesis configuration... 
F1:4:1,
F10:3:1
experiments/theorem_prover//
(7, {'F1': 4, 'F10': 3}, {'F1': 1, 'F10': 1}, {'H1': 2}, {'F1': <function F1 at 0x72601d38cdc0>, 'F10': <function F10 at 0x72601d38cee0>, 'H1': <function H1 at 0x72601d38cf70>}, False)
Using 31268 samples ...
--- Found cache file 'experiments/theorem_prover/sampler_cache_theorem_prover.pkl'. Loading samples. ---

--- WARNING: All 3731 unique feature combinations have been generated. Cannot generate more. ---
--- Returning all available samples. ---
Got 3731 samples ...
--- Head of Samples (first 5) ---
Sample 1: Features: (('F1', 0.41), ('F10', 1.1)) -> Label: [('H1', 1)]
Sample 2: Features: (('F1', 0.23), ('F10', 1.9)) -> Label: [('H1', 0)]
Sample 3: Features: (('F1', 0.6), ('F10', 2.2)) -> Label: [('H1', 1)]
Sample 4: Features: (('F1', 0.52), ('F10', 1.2)) -> Label: [('H1', 1)]
Sample 5: Features: (('F1', 0.75), ('F10', 3.6)) -> Label: [('H1', 1)]
---------------------------------
=================================
 Exploring solution in region [0,100,0]
=================================
|---Estimated maximum explanation score: 14
Translating to dimacs...
Translating to wcnfdimacs...
|---Extracting soft variables...
|---Estimated maximum explanation score: 14
|---Extracting threshold variables...
|---Writing WCNF File...
Using MILP solver: milp_solver_big_m
Set parameter WLSAccessID
Set parameter WLSSecret
Set parameter LicenseID to value 2713262
Academic license 2713262 - for non-commercial use only - registered to hi___@iitb.ac.in
Set parameter OutputFlag to value 1
Max Sat...
Gurobi Optimizer version 13.0.0 build v13.0.0rc1 (linux64 - "Zorin OS 17.3")

CPU model: 12th Gen Intel(R) Core(TM) i5-12450H, instruction set [SSE2|AVX|AVX2]
Thread count: 12 physical cores, 12 logical processors, using up to 12 threads

Academic license 2713262 - for non-commercial use only - registered to hi___@iitb.ac.in
Optimize a model with 8954 rows, 3124 columns and 20625 nonzeros (Min)
Model fingerprint: 0xc4e86b97
Model has 39 linear objective coefficients
Variable types: 0 continuous, 3124 integer (3124 binary)
Coefficient statistics:
  Matrix range     [1e+00, 1e+00]
  Objective range  [1e+01, 5e+02]
  Bounds range     [1e+00, 1e+00]
  RHS range        [1e+00, 2e+00]
Presolve removed 5386 rows and 2449 columns
Presolve time: 0.10s
Presolved: 3568 rows, 675 columns, 11974 nonzeros
Variable types: 0 continuous, 675 integer (675 binary)
Found heuristic solution: objective 4679.0000000

Root relaxation: objective 3.992000e+03, 709 iterations, 0.02 seconds (0.03 work units)

    Nodes    |    Current Node    |     Objective Bounds      |     Work
 Expl Unexpl |  Obj  Depth IntInf | Incumbent    BestBd   Gap | It/Node Time

     0     0 3992.00000    0  122 4679.00000 3992.00000  14.7%     -    0s
H    0     0                    4665.0000000 3992.00000  14.4%     -    0s
     0     0 3992.00000    0  200 4665.00000 3992.00000  14.4%     -    0s
     0     0 3992.00000    0  199 4665.00000 3992.00000  14.4%     -    0s
H    0     0                    4370.0000000 3998.50000  8.50%     -    0s
H    0     0                    4117.0000000 4047.00000  1.70%     -    0s
     0     0 4075.00000    0   69 4117.00000 4075.00000  1.02%     -    0s
     0     0 4075.00000    0   42 4117.00000 4075.00000  1.02%     -    0s
H    0     0                    4089.0000000 4075.00000  0.34%     -    0s
     0     0 4075.00000    0   36 4089.00000 4075.00000  0.34%     -    0s
H    0     0                    4075.0000000 4075.00000  0.00%     -    0s

Cutting planes:
  Gomory: 2
  Cover: 9
  Implied bound: 38
  Clique: 71
  MIR: 6
  Zero half: 24
  RLT: 39
  Relax-and-lift: 4
  BQP: 3
  PSD: 8

Explored 1 nodes (2254 simplex iterations) in 0.29 seconds (0.34 work units)
Thread count was 12 (of 12 available processors)

Solution count 6: 4075 4089 4117 ... 4679

Optimal solution found (tolerance 1.00e-04)
Best objective 4.075000000000e+03, best bound 4.075000000000e+03, gap 0.0000%
Total cost:4075.0
['F1', 'F10']
SatSamples :3067
explainibilityReward: 3464
correctnessReward: 3067
experiments/theorem_prover//
Extracting program from witness...
(6,3) -> H1_0
(6,2) -> H1_0
(6,1) -> H1_0
(6,0) -> H1_1
(5,3) -> 6
(5,2) -> H1_0
(5,1) -> H1_1
(5,0) -> H1_1
(4,2) -> H1_0
(4,1) -> 6
(4,0) -> H1_0
(3,2) -> H1_0
(3,1) -> H1_0
(3,0) -> H1_0
(2,2) -> 5
(2,1) -> 4
(2,0) -> 4
(1,3) -> 2
(1,2) -> 2
(1,1) -> 2
(1,0) -> 3
(0,3) -> H1_1
(0,2) -> H1_1
(0,1) -> H1_1
(0,0) -> H1_0
0: F1
Synthesized program: experiments/theorem_prover//program/program_ms_0_100_0_erm.py
Visualization: experiments/theorem_prover//program/program_ms_0_100_0_erm.dot
Synthesis time:2.0792806050158106
Accuracy:0.8220316269096757 (3067/3731)
Explainability: 0.9284374162422943
Adding region (0,92,0.8220316269096757)
Adding region (92,100,0)
=================================
Pareto-optimal solutions: 
 [('experiments/theorem_prover//program/program_ms_0_100_0_erm.py', 0.8220316269096757, 0.9284374162422943)]


--- Standard Error (stderr) ---
2025-11-23 20:34:30.285340: I tensorflow/core/util/port.cc:113] oneDNN custom operations are on. You may see slightly different numerical results due to floating-point round-off errors from different computation orders. To turn them off, set the environment variable `TF_ENABLE_ONEDNN_OPTS=0`.
2025-11-23 20:34:30.286815: I external/local_tsl/tsl/cuda/cudart_stub.cc:31] Could not find cuda drivers on your machine, GPU will not be used.
2025-11-23 20:34:30.312204: E external/local_xla/xla/stream_executor/cuda/cuda_dnn.cc:9261] Unable to register cuDNN factory: Attempting to register factory for plugin cuDNN when one has already been registered
2025-11-23 20:34:30.312231: E external/local_xla/xla/stream_executor/cuda/cuda_fft.cc:607] Unable to register cuFFT factory: Attempting to register factory for plugin cuFFT when one has already been registered
2025-11-23 20:34:30.313060: E external/local_xla/xla/stream_executor/cuda/cuda_blas.cc:1515] Unable to register cuBLAS factory: Attempting to register factory for plugin cuBLAS when one has already been registered
2025-11-23 20:34:30.317440: I external/local_tsl/tsl/cuda/cudart_stub.cc:31] Could not find cuda drivers on your machine, GPU will not be used.
2025-11-23 20:34:30.317586: I tensorflow/core/platform/cpu_feature_guard.cc:182] This TensorFlow binary is optimized to use available CPU instructions in performance-critical operations.
To enable the following instructions: AVX2 AVX_VNNI FMA, in other operations, rebuild TensorFlow with the appropriate compiler flags.
2025-11-23 20:34:30.806555: W tensorflow/compiler/tf2tensorrt/utils/py_utils.cc:38] TF-TRT Warning: Could not find TensorRT
